NAME: instance_11
TYPE: TSP
COMMENT: 11-city problem
DIMENSION: 11
EDGE_WEIGHT_TYPE: EUC_2D
NODE_COORD_SECTION
0 512 518
1 544 50
2 621 274
3 755 410
4 529 309
5 558 915
6 184 320
7 313 474
8 235 674
9 898 290
10 73 659
EOF
